ESSENCE' 1.0

letting n be 16
letting w be 4

letting noWalls be 3
letting noInvalidMoves be 5

letting noCrates be 2
letting noGoals be 2
letting stps be 5

letting pInit be 5

letting cInit1 be 10
letting cInit2 be 7

where

 walls[1] = 1,
 walls[2] = 2,
 walls[3] = 4,

 invalidMoves[1] = -3,
 invalidMoves[2] = -2,
 invalidMoves[3] = 0,
 invalidMoves[4] = 2,
 invalidMoves[5] = 3,
 
 crates[1] = 10,
 crates[2] = 7,
 
 goals[1] = 14,
 goals[2] = 3